1159.09,48.85,58.55
1080.44,52.41,62.81
1128.72,50.17,60.13
1028.64,55.05,65.98
1188.17,47.66,57.12
1141.94,49.59,59.43
1074.63,52.69,63.15
1180.39,47.97,57.49
1069.07,52.97,63.48
1232.09,45.96,55.08
1282.44,44.16,52.92
1121.85,50.48,60.49
1094.93,51.72,61.98
1229.84,46.04,55.18
1108.14,51.1,61.24
1143.02,49.54,59.37
1199.89,47.19,56.56
1288.64,43.94,52.67
1158.67,48.87,58.57
1146.86,49.38,59.18
